0001 7
0002 17
0003 11
0004 5
0005 5
0006 11
0007 3
0008 15
0009 9
0010 13
0011 8
0012 8
0013 17
0014 21
0015 13
0016 3
0017 19
0018 10
0019 1
0020 1
0021 20
0022 11
0023 6
0024 21
0025 4
0026 3
0027 2
0028 1
0029 1
0030 1
0031 1
0032 16
0033 9
0034 9
0035 13
0036 5
0037 18
0038 18
0039 18
0040 16
0041 16
0042 17
0043 16
0044 8
0045 18
0046 1
0047 7
0048 9
0049 7
0050 5
0051 4
0052 20
0053 20
0054 6
0055 6
0056 14
0057 21
0058 6
0059 21
0060 9
0061 6
0062 4
0063 20
0064 11
0065 14
0066 15
0067 2
0068 10
0069 19
0070 19
0071 19
0072 19
0073 6
0074 4
0075 14
0076 7
0077 7
0078 1
0079 13
0080 8
0081 13
0082 11
0083 21
0084 21
0085 13
0086 13
0087 15
0088 11
0089 2
0090 8
0091 10
0092 14
0093 3
0094 20
0095 15
0096 5
0097 1
0098 15
0099 20
0100 12
0101 21
0102 19
0103 3
0104 13
0105 13
0106 17
0107 14
0108 14
0109 15
0110 15
0111 21
0112 10
0113 2
0114 3
0115 3
0116 3
0117 21
0118 12
0119 12
0120 20
0121 8
0122 14
0123 5
0124 3
0125 17
0126 20
0127 14
0128 4
0129 1
0130 17
0131 17
0132 17
0133 18
0134 1
0135 1
0136 19
0137 18
0138 6
0139 10
0140 10
0141 21
0142 7
0143 11
0144 16
0145 2
0146 1
0147 9
0148 9
0149 20
0150 10
0151 4
0152 10
0153 5
0154 5
0155 5
0156 6
0157 7
0158 6
0159 10
0160 20
0161 18
0162 21
0163 2
0164 10
0165 21
0166 12
0167 3
0168 14
0169 19
0170 21
0171 1
0172 7
0173 11
0174 8
0175 12
0176 13
0177 6
0178 1
0179 17
0180 17
0181 5
